p cnf 28 61
-41 -44 -46 -48 -66 0
-89 0
-44 -46 -48 -63 -66 0
-46 -48 -63 -66 -69 0
-41 -46 -66 -73 -97 0
-46 -63 -66 -73 -97 0
-45 -63 -98 0
-73 -102 0
-41 -46 -48 -66 -103 0
-46 -48 -63 -66 -103 0
-41 -70 -98 0
-63 -70 -98 0
-7 -63 -98 -106 0
-8 -41 -44 -46 -66 -106 0
-8 -44 -46 -63 -66 -106 0
-44 -46 -63 -66 -74 0
-41 -46 -66 -69 -74 0
-8 -46 -63 -66 -69 -106 0
-46 -63 -66 -69 -74 0
-48 -67 -69 -106 0
-41 -44 -48 -66 -71 0
-44 -48 -63 -66 -71 0
-44 -48 -101 0
-41 -48 -66 -69 -71 0
-48 -63 -66 -69 -71 0
-48 -69 -101 0
-41 -48 -66 -71 -103 0
-48 -67 -103 -106 0
-48 -63 -66 -71 -103 0
-48 -101 -103 0
-44 -48 -67 -106 0
-44 -48 -67 -104 0
-48 -67 -69 -104 0
-48 -67 -103 -104 0
-44 -46 -48 -66 -85 0
-44 -46 -48 -66 -95 0
-44 -46 -48 -66 -99 0
-46 -48 -66 -69 -99 0
-46 -48 -66 -69 -85 0
-46 -48 -66 -69 -95 0
-41 -46 -48 -66 -69 0
-45 -98 -99 0
-7 -41 -98 -106 0
-70 -85 -98 0
-70 -95 -98 0
-70 -98 -99 0
-45 -85 -98 0
-7 -85 -98 -106 0
-7 -95 -98 -106 0
-45 -95 -98 0
-41 -45 -98 0
-7 -98 -99 -106 0
-41 -44 -48 -71 -96 0
-41 -44 -46 -48 -100 0
-41 -44 -46 -48 -96 0
-41 -44 -48 -71 -100 0
-8 -41 -44 -66 -71 -106 0
-44 -67 -74 -106 0
-41 -44 -46 -66 -74 0
-8 -44 -101 -106 0
-8 -44 -67 -106 0
